sat
(= |goto_symex::&92;guard#1| false)
(= |goto_symex::&92;guard#2| true)
(= |goto_symex::&92;guard#3| false)
(= |goto_symex::&92;guard#4| true)
(= |goto_symex::&92;guard#5| true)
(= |memory_model::choice_rf_0_15_0_7_T_0| false)
(= |memory_model::choice_rf_0_15_0_12_T_1| true)
(= |memory_model::choice_rf_0_19_0_7_T_2| false)
(= |memory_model::choice_rf_0_19_0_12_T_3| false)
(= |memory_model::choice_rf_0_19_0_16_T_4| true)
(= |memory_model::choice_rf_0_23_0_7_T_5| false)
(= |memory_model::choice_rf_0_23_0_12_T_6| false)
(= |memory_model::choice_rf_0_23_0_16_T_7| false)
(= |memory_model::choice_rf_0_23_0_20_T_8| true)
(= |memory_model::choice_rf_0_27_0_7_T_9| false)
(= |memory_model::choice_rf_0_27_0_12_T_10| false)
(= |memory_model::choice_rf_0_27_0_16_T_11| false)
(= |memory_model::choice_rf_0_27_0_20_T_12| false)
(= |memory_model::choice_rf_0_27_0_24_T_13| true)
(= |memory_model::choice_rf_1_2_0_10_F_14| true)
(= |memory_model::choice_rf_1_2_2_3_F_15| false)
(= |memory_model::choice_rf_1_2_2_5_F_16| false)
(= |memory_model::choice_rf_1_2_3_3_F_17| false)
(= |memory_model::choice_rf_1_2_3_5_F_18| false)
(= |memory_model::choice_rf_1_2_4_3_F_19| false)
(= |memory_model::choice_rf_1_2_4_5_F_20| false)
(= |memory_model::choice_rf_1_2_5_3_F_21| false)
(= |memory_model::choice_rf_1_2_5_5_F_22| false)
(= |memory_model::choice_rf_1_4_0_10_F_23| false)
(= |memory_model::choice_rf_1_4_1_3_F_24| true)
(= |memory_model::choice_rf_1_4_2_3_F_25| false)
(= |memory_model::choice_rf_1_4_2_5_F_26| false)
(= |memory_model::choice_rf_1_4_3_3_F_27| false)
(= |memory_model::choice_rf_1_4_3_5_F_28| false)
(= |memory_model::choice_rf_1_4_4_3_F_29| false)
(= |memory_model::choice_rf_1_4_4_5_F_30| false)
(= |memory_model::choice_rf_1_4_5_3_F_31| false)
(= |memory_model::choice_rf_1_4_5_5_F_32| false)
(= |memory_model::choice_rf_2_2_0_10_F_33| false)
(= |memory_model::choice_rf_2_2_1_3_F_34| true)
(= |memory_model::choice_rf_2_2_1_5_F_35| false)
(= |memory_model::choice_rf_2_2_3_3_F_36| false)
(= |memory_model::choice_rf_2_2_3_5_F_37| false)
(= |memory_model::choice_rf_2_2_4_3_F_38| false)
(= |memory_model::choice_rf_2_2_4_5_F_39| false)
(= |memory_model::choice_rf_2_2_5_3_F_40| false)
(= |memory_model::choice_rf_2_2_5_5_F_41| false)
(= |memory_model::choice_rf_2_4_0_10_F_42| false)
(= |memory_model::choice_rf_2_4_1_3_F_43| false)
(= |memory_model::choice_rf_2_4_1_5_F_44| false)
(= |memory_model::choice_rf_2_4_2_3_F_45| false)
(= |memory_model::choice_rf_2_4_3_3_F_46| false)
(= |memory_model::choice_rf_2_4_3_5_F_47| false)
(= |memory_model::choice_rf_2_4_4_3_F_48| false)
(= |memory_model::choice_rf_2_4_4_5_F_49| false)
(= |memory_model::choice_rf_2_4_5_3_F_50| false)
(= |memory_model::choice_rf_2_4_5_5_F_51| false)
(= |memory_model::choice_rf_3_2_0_10_F_52| false)
(= |memory_model::choice_rf_3_2_1_3_F_53| true)
(= |memory_model::choice_rf_3_2_1_5_F_54| false)
(= |memory_model::choice_rf_3_2_2_3_F_55| false)
(= |memory_model::choice_rf_3_2_2_5_F_56| false)
(= |memory_model::choice_rf_3_2_4_3_F_57| false)
(= |memory_model::choice_rf_3_2_4_5_F_58| false)
(= |memory_model::choice_rf_3_2_5_3_F_59| false)
(= |memory_model::choice_rf_3_2_5_5_F_60| false)
(= |memory_model::choice_rf_3_4_0_10_F_61| false)
(= |memory_model::choice_rf_3_4_1_3_F_62| false)
(= |memory_model::choice_rf_3_4_1_5_F_63| false)
(= |memory_model::choice_rf_3_4_2_3_F_64| false)
(= |memory_model::choice_rf_3_4_2_5_F_65| false)
(= |memory_model::choice_rf_3_4_3_3_F_66| true)
(= |memory_model::choice_rf_3_4_4_3_F_67| false)
(= |memory_model::choice_rf_3_4_4_5_F_68| false)
(= |memory_model::choice_rf_3_4_5_3_F_69| false)
(= |memory_model::choice_rf_3_4_5_5_F_70| false)
(= |memory_model::choice_rf_4_2_0_10_F_71| false)
(= |memory_model::choice_rf_4_2_1_3_F_72| false)
(= |memory_model::choice_rf_4_2_1_5_F_73| false)
(= |memory_model::choice_rf_4_2_2_3_F_74| false)
(= |memory_model::choice_rf_4_2_2_5_F_75| false)
(= |memory_model::choice_rf_4_2_3_3_F_76| true)
(= |memory_model::choice_rf_4_2_3_5_F_77| false)
(= |memory_model::choice_rf_4_2_5_3_F_78| false)
(= |memory_model::choice_rf_4_2_5_5_F_79| false)
(= |memory_model::choice_rf_4_4_0_10_F_80| false)
(= |memory_model::choice_rf_4_4_1_3_F_81| false)
(= |memory_model::choice_rf_4_4_1_5_F_82| false)
(= |memory_model::choice_rf_4_4_2_3_F_83| false)
(= |memory_model::choice_rf_4_4_2_5_F_84| false)
(= |memory_model::choice_rf_4_4_3_3_F_85| false)
(= |memory_model::choice_rf_4_4_3_5_F_86| false)
(= |memory_model::choice_rf_4_4_4_3_F_87| true)
(= |memory_model::choice_rf_4_4_5_3_F_88| false)
(= |memory_model::choice_rf_4_4_5_5_F_89| false)
(= |memory_model::choice_rf_5_2_0_10_F_90| false)
(= |memory_model::choice_rf_5_2_1_3_F_91| false)
(= |memory_model::choice_rf_5_2_1_5_F_92| false)
(= |memory_model::choice_rf_5_2_2_3_F_93| false)
(= |memory_model::choice_rf_5_2_2_5_F_94| false)
(= |memory_model::choice_rf_5_2_3_3_F_95| true)
(= |memory_model::choice_rf_5_2_3_5_F_96| false)
(= |memory_model::choice_rf_5_2_4_3_F_97| false)
(= |memory_model::choice_rf_5_2_4_5_F_98| false)
(= |memory_model::choice_rf_5_4_0_10_F_99| false)
(= |memory_model::choice_rf_5_4_1_3_F_100| false)
(= |memory_model::choice_rf_5_4_1_5_F_101| false)
(= |memory_model::choice_rf_5_4_2_3_F_102| false)
(= |memory_model::choice_rf_5_4_2_5_F_103| false)
(= |memory_model::choice_rf_5_4_3_3_F_104| false)
(= |memory_model::choice_rf_5_4_3_5_F_105| false)
(= |memory_model::choice_rf_5_4_4_3_F_106| false)
(= |memory_model::choice_rf_5_4_4_5_F_107| false)
(= |memory_model::choice_rf_5_4_5_3_F_108| false)
(= |memory_model::choice_rf_1_0_0_0_F_109| true)
(= |memory_model::choice_rf_1_0_2_1_F_110| false)
(= |memory_model::choice_rf_1_0_2_7_F_111| false)
(= |memory_model::choice_rf_1_0_2_9_F_112| false)
(= |memory_model::choice_rf_1_0_3_1_F_113| false)
(= |memory_model::choice_rf_1_0_3_7_F_114| false)
(= |memory_model::choice_rf_1_0_3_9_F_115| false)
(= |memory_model::choice_rf_1_0_4_1_F_116| false)
(= |memory_model::choice_rf_1_0_4_7_F_117| false)
(= |memory_model::choice_rf_1_0_4_9_F_118| false)
(= |memory_model::choice_rf_1_0_5_1_F_119| false)
(= |memory_model::choice_rf_1_0_5_7_F_120| false)
(= |memory_model::choice_rf_1_0_5_9_F_121| false)
(= |memory_model::choice_rf_1_6_0_0_F_122| false)
(= |memory_model::choice_rf_1_6_1_1_F_123| true)
(= |memory_model::choice_rf_1_6_2_1_F_124| false)
(= |memory_model::choice_rf_1_6_2_7_F_125| false)
(= |memory_model::choice_rf_1_6_2_9_F_126| false)
(= |memory_model::choice_rf_1_6_3_1_F_127| false)
(= |memory_model::choice_rf_1_6_3_7_F_128| false)
(= |memory_model::choice_rf_1_6_3_9_F_129| false)
(= |memory_model::choice_rf_1_6_4_1_F_130| false)
(= |memory_model::choice_rf_1_6_4_7_F_131| false)
(= |memory_model::choice_rf_1_6_4_9_F_132| false)
(= |memory_model::choice_rf_1_6_5_1_F_133| false)
(= |memory_model::choice_rf_1_6_5_7_F_134| false)
(= |memory_model::choice_rf_1_6_5_9_F_135| false)
(= |memory_model::choice_rf_1_8_0_0_F_136| false)
(= |memory_model::choice_rf_1_8_1_1_F_137| false)
(= |memory_model::choice_rf_1_8_1_7_F_138| false)
(= |memory_model::choice_rf_1_8_2_1_F_139| false)
(= |memory_model::choice_rf_1_8_2_7_F_140| false)
(= |memory_model::choice_rf_1_8_2_9_F_141| false)
(= |memory_model::choice_rf_1_8_3_1_F_142| false)
(= |memory_model::choice_rf_1_8_3_7_F_143| false)
(= |memory_model::choice_rf_1_8_3_9_F_144| false)
(= |memory_model::choice_rf_1_8_4_1_F_145| false)
(= |memory_model::choice_rf_1_8_4_7_F_146| false)
(= |memory_model::choice_rf_1_8_4_9_F_147| false)
(= |memory_model::choice_rf_1_8_5_1_F_148| false)
(= |memory_model::choice_rf_1_8_5_7_F_149| false)
(= |memory_model::choice_rf_1_8_5_9_F_150| false)
(= |memory_model::choice_rf_2_0_0_0_F_151| false)
(= |memory_model::choice_rf_2_0_1_1_F_152| true)
(= |memory_model::choice_rf_2_0_1_7_F_153| false)
(= |memory_model::choice_rf_2_0_1_9_F_154| false)
(= |memory_model::choice_rf_2_0_3_1_F_155| false)
(= |memory_model::choice_rf_2_0_3_7_F_156| false)
(= |memory_model::choice_rf_2_0_3_9_F_157| false)
(= |memory_model::choice_rf_2_0_4_1_F_158| false)
(= |memory_model::choice_rf_2_0_4_7_F_159| false)
(= |memory_model::choice_rf_2_0_4_9_F_160| false)
(= |memory_model::choice_rf_2_0_5_1_F_161| false)
(= |memory_model::choice_rf_2_0_5_7_F_162| false)
(= |memory_model::choice_rf_2_0_5_9_F_163| false)
(= |memory_model::choice_rf_2_6_0_0_F_164| false)
(= |memory_model::choice_rf_2_6_1_1_F_165| false)
(= |memory_model::choice_rf_2_6_1_7_F_166| false)
(= |memory_model::choice_rf_2_6_1_9_F_167| false)
(= |memory_model::choice_rf_2_6_2_1_F_168| false)
(= |memory_model::choice_rf_2_6_3_1_F_169| false)
(= |memory_model::choice_rf_2_6_3_7_F_170| false)
(= |memory_model::choice_rf_2_6_3_9_F_171| false)
(= |memory_model::choice_rf_2_6_4_1_F_172| false)
(= |memory_model::choice_rf_2_6_4_7_F_173| false)
(= |memory_model::choice_rf_2_6_4_9_F_174| false)
(= |memory_model::choice_rf_2_6_5_1_F_175| false)
(= |memory_model::choice_rf_2_6_5_7_F_176| false)
(= |memory_model::choice_rf_2_6_5_9_F_177| false)
(= |memory_model::choice_rf_2_8_0_0_F_178| false)
(= |memory_model::choice_rf_2_8_1_1_F_179| false)
(= |memory_model::choice_rf_2_8_1_7_F_180| false)
(= |memory_model::choice_rf_2_8_1_9_F_181| false)
(= |memory_model::choice_rf_2_8_2_1_F_182| false)
(= |memory_model::choice_rf_2_8_2_7_F_183| false)
(= |memory_model::choice_rf_2_8_3_1_F_184| false)
(= |memory_model::choice_rf_2_8_3_7_F_185| false)
(= |memory_model::choice_rf_2_8_3_9_F_186| false)
(= |memory_model::choice_rf_2_8_4_1_F_187| false)
(= |memory_model::choice_rf_2_8_4_7_F_188| false)
(= |memory_model::choice_rf_2_8_4_9_F_189| false)
(= |memory_model::choice_rf_2_8_5_1_F_190| false)
(= |memory_model::choice_rf_2_8_5_7_F_191| false)
(= |memory_model::choice_rf_2_8_5_9_F_192| false)
(= |memory_model::choice_rf_3_0_0_0_F_193| false)
(= |memory_model::choice_rf_3_0_1_1_F_194| false)
(= |memory_model::choice_rf_3_0_1_7_F_195| true)
(= |memory_model::choice_rf_3_0_1_9_F_196| false)
(= |memory_model::choice_rf_3_0_2_1_F_197| false)
(= |memory_model::choice_rf_3_0_2_7_F_198| false)
(= |memory_model::choice_rf_3_0_2_9_F_199| false)
(= |memory_model::choice_rf_3_0_4_1_F_200| false)
(= |memory_model::choice_rf_3_0_4_7_F_201| false)
(= |memory_model::choice_rf_3_0_4_9_F_202| false)
(= |memory_model::choice_rf_3_0_5_1_F_203| false)
(= |memory_model::choice_rf_3_0_5_7_F_204| false)
(= |memory_model::choice_rf_3_0_5_9_F_205| false)
(= |memory_model::choice_rf_3_6_0_0_F_206| false)
(= |memory_model::choice_rf_3_6_1_1_F_207| false)
(= |memory_model::choice_rf_3_6_1_7_F_208| false)
(= |memory_model::choice_rf_3_6_1_9_F_209| false)
(= |memory_model::choice_rf_3_6_2_1_F_210| false)
(= |memory_model::choice_rf_3_6_2_7_F_211| false)
(= |memory_model::choice_rf_3_6_2_9_F_212| false)
(= |memory_model::choice_rf_3_6_3_1_F_213| true)
(= |memory_model::choice_rf_3_6_4_1_F_214| false)
(= |memory_model::choice_rf_3_6_4_7_F_215| false)
(= |memory_model::choice_rf_3_6_4_9_F_216| false)
(= |memory_model::choice_rf_3_6_5_1_F_217| false)
(= |memory_model::choice_rf_3_6_5_7_F_218| false)
(= |memory_model::choice_rf_3_6_5_9_F_219| false)
(= |memory_model::choice_rf_3_8_0_0_F_220| false)
(= |memory_model::choice_rf_3_8_1_1_F_221| false)
(= |memory_model::choice_rf_3_8_1_7_F_222| false)
(= |memory_model::choice_rf_3_8_1_9_F_223| false)
(= |memory_model::choice_rf_3_8_2_1_F_224| false)
(= |memory_model::choice_rf_3_8_2_7_F_225| false)
(= |memory_model::choice_rf_3_8_2_9_F_226| false)
(= |memory_model::choice_rf_3_8_3_1_F_227| false)
(= |memory_model::choice_rf_3_8_3_7_F_228| false)
(= |memory_model::choice_rf_3_8_4_1_F_229| false)
(= |memory_model::choice_rf_3_8_4_7_F_230| false)
(= |memory_model::choice_rf_3_8_4_9_F_231| false)
(= |memory_model::choice_rf_3_8_5_1_F_232| false)
(= |memory_model::choice_rf_3_8_5_7_F_233| false)
(= |memory_model::choice_rf_3_8_5_9_F_234| false)
(= |memory_model::choice_rf_4_0_0_0_F_235| false)
(= |memory_model::choice_rf_4_0_1_1_F_236| false)
(= |memory_model::choice_rf_4_0_1_7_F_237| false)
(= |memory_model::choice_rf_4_0_1_9_F_238| false)
(= |memory_model::choice_rf_4_0_2_1_F_239| false)
(= |memory_model::choice_rf_4_0_2_7_F_240| false)
(= |memory_model::choice_rf_4_0_2_9_F_241| false)
(= |memory_model::choice_rf_4_0_3_1_F_242| false)
(= |memory_model::choice_rf_4_0_3_7_F_243| true)
(= |memory_model::choice_rf_4_0_3_9_F_244| false)
(= |memory_model::choice_rf_4_0_5_1_F_245| false)
(= |memory_model::choice_rf_4_0_5_7_F_246| false)
(= |memory_model::choice_rf_4_0_5_9_F_247| false)
(= |memory_model::choice_rf_4_6_0_0_F_248| false)
(= |memory_model::choice_rf_4_6_1_1_F_249| false)
(= |memory_model::choice_rf_4_6_1_7_F_250| false)
(= |memory_model::choice_rf_4_6_1_9_F_251| false)
(= |memory_model::choice_rf_4_6_2_1_F_252| false)
(= |memory_model::choice_rf_4_6_2_7_F_253| false)
(= |memory_model::choice_rf_4_6_2_9_F_254| false)
(= |memory_model::choice_rf_4_6_3_1_F_255| false)
(= |memory_model::choice_rf_4_6_3_7_F_256| false)
(= |memory_model::choice_rf_4_6_3_9_F_257| false)
(= |memory_model::choice_rf_4_6_4_1_F_258| false)
(= |memory_model::choice_rf_4_6_5_1_F_259| false)
(= |memory_model::choice_rf_4_6_5_7_F_260| false)
(= |memory_model::choice_rf_4_6_5_9_F_261| false)
(= |memory_model::choice_rf_4_8_0_0_F_262| false)
(= |memory_model::choice_rf_4_8_1_1_F_263| false)
(= |memory_model::choice_rf_4_8_1_7_F_264| false)
(= |memory_model::choice_rf_4_8_1_9_F_265| false)
(= |memory_model::choice_rf_4_8_2_1_F_266| false)
(= |memory_model::choice_rf_4_8_2_7_F_267| false)
(= |memory_model::choice_rf_4_8_2_9_F_268| false)
(= |memory_model::choice_rf_4_8_3_1_F_269| false)
(= |memory_model::choice_rf_4_8_3_7_F_270| false)
(= |memory_model::choice_rf_4_8_3_9_F_271| false)
(= |memory_model::choice_rf_4_8_4_1_F_272| true)
(= |memory_model::choice_rf_4_8_4_7_F_273| false)
(= |memory_model::choice_rf_4_8_5_1_F_274| false)
(= |memory_model::choice_rf_4_8_5_7_F_275| false)
(= |memory_model::choice_rf_4_8_5_9_F_276| false)
(= |memory_model::choice_rf_5_0_0_0_F_277| false)
(= |memory_model::choice_rf_5_0_1_1_F_278| false)
(= |memory_model::choice_rf_5_0_1_7_F_279| false)
(= |memory_model::choice_rf_5_0_1_9_F_280| false)
(= |memory_model::choice_rf_5_0_2_1_F_281| false)
(= |memory_model::choice_rf_5_0_2_7_F_282| false)
(= |memory_model::choice_rf_5_0_2_9_F_283| false)
(= |memory_model::choice_rf_5_0_3_1_F_284| false)
(= |memory_model::choice_rf_5_0_3_7_F_285| false)
(= |memory_model::choice_rf_5_0_3_9_F_286| false)
(= |memory_model::choice_rf_5_0_4_1_F_287| true)
(= |memory_model::choice_rf_5_0_4_7_F_288| false)
(= |memory_model::choice_rf_5_0_4_9_F_289| false)
(= |memory_model::choice_rf_5_6_0_0_F_290| false)
(= |memory_model::choice_rf_5_6_1_1_F_291| false)
(= |memory_model::choice_rf_5_6_1_7_F_292| false)
(= |memory_model::choice_rf_5_6_1_9_F_293| false)
(= |memory_model::choice_rf_5_6_2_1_F_294| false)
(= |memory_model::choice_rf_5_6_2_7_F_295| false)
(= |memory_model::choice_rf_5_6_2_9_F_296| false)
(= |memory_model::choice_rf_5_6_3_1_F_297| false)
(= |memory_model::choice_rf_5_6_3_7_F_298| false)
(= |memory_model::choice_rf_5_6_3_9_F_299| false)
(= |memory_model::choice_rf_5_6_4_1_F_300| false)
(= |memory_model::choice_rf_5_6_4_7_F_301| false)
(= |memory_model::choice_rf_5_6_4_9_F_302| false)
(= |memory_model::choice_rf_5_6_5_1_F_303| false)
(= |memory_model::choice_rf_5_8_0_0_F_304| false)
(= |memory_model::choice_rf_5_8_1_1_F_305| false)
(= |memory_model::choice_rf_5_8_1_7_F_306| false)
(= |memory_model::choice_rf_5_8_1_9_F_307| false)
(= |memory_model::choice_rf_5_8_2_1_F_308| false)
(= |memory_model::choice_rf_5_8_2_7_F_309| false)
(= |memory_model::choice_rf_5_8_2_9_F_310| false)
(= |memory_model::choice_rf_5_8_3_1_F_311| false)
(= |memory_model::choice_rf_5_8_3_7_F_312| false)
(= |memory_model::choice_rf_5_8_3_9_F_313| false)
(= |memory_model::choice_rf_5_8_4_1_F_314| false)
(= |memory_model::choice_rf_5_8_4_7_F_315| false)
(= |memory_model::choice_rf_5_8_4_9_F_316| false)
(= |memory_model::choice_rf_5_8_5_1_F_317| false)
(= |memory_model::choice_rf_5_8_5_7_F_318| false)
(= |memory_model::choice_ws-ext_0_10_1_3_F_319| true)
(= |memory_model::choice_ws-ext_0_10_1_5_F_320| true)
(= |memory_model::choice_ws-ext_0_10_2_3_F_321| true)
(= |memory_model::choice_ws-ext_0_10_2_5_F_322| true)
(= |memory_model::choice_ws-ext_0_10_3_3_F_323| true)
(= |memory_model::choice_ws-ext_0_10_3_5_F_324| true)
(= |memory_model::choice_ws-ext_0_10_4_3_F_325| true)
(= |memory_model::choice_ws-ext_0_10_4_5_F_326| true)
(= |memory_model::choice_ws-ext_0_10_5_3_F_327| true)
(= |memory_model::choice_ws-ext_0_10_5_5_F_328| true)
(= |memory_model::choice_ws-ext_1_3_2_3_F_329| true)
(= |memory_model::choice_ws-ext_1_3_2_5_F_330| true)
(= |memory_model::choice_ws-ext_1_3_3_3_F_331| true)
(= |memory_model::choice_ws-ext_1_3_3_5_F_332| true)
(= |memory_model::choice_ws-ext_1_3_4_3_F_333| true)
(= |memory_model::choice_ws-ext_1_3_4_5_F_334| true)
(= |memory_model::choice_ws-ext_1_3_5_3_F_335| true)
(= |memory_model::choice_ws-ext_1_3_5_5_F_336| true)
(= |memory_model::choice_ws-ext_1_5_2_3_F_337| true)
(= |memory_model::choice_ws-ext_1_5_2_5_F_338| true)
(= |memory_model::choice_ws-ext_1_5_3_3_F_339| true)
(= |memory_model::choice_ws-ext_1_5_3_5_F_340| true)
(= |memory_model::choice_ws-ext_1_5_4_3_F_341| true)
(= |memory_model::choice_ws-ext_1_5_4_5_F_342| true)
(= |memory_model::choice_ws-ext_1_5_5_3_F_343| true)
(= |memory_model::choice_ws-ext_1_5_5_5_F_344| true)
(= |memory_model::choice_ws-ext_2_3_3_3_F_345| false)
(= |memory_model::choice_ws-ext_2_3_3_5_F_346| false)
(= |memory_model::choice_ws-ext_2_3_4_3_F_347| false)
(= |memory_model::choice_ws-ext_2_3_4_5_F_348| false)
(= |memory_model::choice_ws-ext_2_3_5_3_F_349| true)
(= |memory_model::choice_ws-ext_2_3_5_5_F_350| true)
(= |memory_model::choice_ws-ext_2_5_3_3_F_351| false)
(= |memory_model::choice_ws-ext_2_5_3_5_F_352| false)
(= |memory_model::choice_ws-ext_2_5_4_3_F_353| false)
(= |memory_model::choice_ws-ext_2_5_4_5_F_354| false)
(= |memory_model::choice_ws-ext_2_5_5_3_F_355| false)
(= |memory_model::choice_ws-ext_2_5_5_5_F_356| true)
(= |memory_model::choice_ws-ext_3_3_4_3_F_357| true)
(= |memory_model::choice_ws-ext_3_3_4_5_F_358| true)
(= |memory_model::choice_ws-ext_3_3_5_3_F_359| true)
(= |memory_model::choice_ws-ext_3_3_5_5_F_360| true)
(= |memory_model::choice_ws-ext_3_5_4_3_F_361| true)
(= |memory_model::choice_ws-ext_3_5_4_5_F_362| true)
(= |memory_model::choice_ws-ext_3_5_5_3_F_363| true)
(= |memory_model::choice_ws-ext_3_5_5_5_F_364| true)
(= |memory_model::choice_ws-ext_4_3_5_3_F_365| true)
(= |memory_model::choice_ws-ext_4_3_5_5_F_366| true)
(= |memory_model::choice_ws-ext_4_5_5_3_F_367| true)
(= |memory_model::choice_ws-ext_4_5_5_5_F_368| true)
(= |memory_model::choice_ws-ext_0_0_1_1_F_369| true)
(= |memory_model::choice_ws-ext_0_0_1_7_F_370| true)
(= |memory_model::choice_ws-ext_0_0_1_9_F_371| true)
(= |memory_model::choice_ws-ext_0_0_2_1_F_372| true)
(= |memory_model::choice_ws-ext_0_0_2_7_F_373| true)
(= |memory_model::choice_ws-ext_0_0_2_9_F_374| true)
(= |memory_model::choice_ws-ext_0_0_3_1_F_375| true)
(= |memory_model::choice_ws-ext_0_0_3_7_F_376| true)
(= |memory_model::choice_ws-ext_0_0_3_9_F_377| true)
(= |memory_model::choice_ws-ext_0_0_4_1_F_378| true)
(= |memory_model::choice_ws-ext_0_0_4_7_F_379| true)
(= |memory_model::choice_ws-ext_0_0_4_9_F_380| true)
(= |memory_model::choice_ws-ext_0_0_5_1_F_381| true)
(= |memory_model::choice_ws-ext_0_0_5_7_F_382| true)
(= |memory_model::choice_ws-ext_0_0_5_9_F_383| true)
(= |memory_model::choice_ws-ext_1_1_2_1_F_384| true)
(= |memory_model::choice_ws-ext_1_1_2_7_F_385| true)
(= |memory_model::choice_ws-ext_1_1_2_9_F_386| true)
(= |memory_model::choice_ws-ext_1_1_3_1_F_387| true)
(= |memory_model::choice_ws-ext_1_1_3_7_F_388| true)
(= |memory_model::choice_ws-ext_1_1_3_9_F_389| true)
(= |memory_model::choice_ws-ext_1_1_4_1_F_390| true)
(= |memory_model::choice_ws-ext_1_1_4_7_F_391| true)
(= |memory_model::choice_ws-ext_1_1_4_9_F_392| true)
(= |memory_model::choice_ws-ext_1_1_5_1_F_393| true)
(= |memory_model::choice_ws-ext_1_1_5_7_F_394| true)
(= |memory_model::choice_ws-ext_1_1_5_9_F_395| true)
(= |memory_model::choice_ws-ext_1_7_2_1_F_396| false)
(= |memory_model::choice_ws-ext_1_7_2_7_F_397| true)
(= |memory_model::choice_ws-ext_1_7_2_9_F_398| true)
(= |memory_model::choice_ws-ext_1_7_3_1_F_399| true)
(= |memory_model::choice_ws-ext_1_7_3_7_F_400| true)
(= |memory_model::choice_ws-ext_1_7_3_9_F_401| true)
(= |memory_model::choice_ws-ext_1_7_4_1_F_402| true)
(= |memory_model::choice_ws-ext_1_7_4_7_F_403| true)
(= |memory_model::choice_ws-ext_1_7_4_9_F_404| true)
(= |memory_model::choice_ws-ext_1_7_5_1_F_405| true)
(= |memory_model::choice_ws-ext_1_7_5_7_F_406| true)
(= |memory_model::choice_ws-ext_1_7_5_9_F_407| true)
(= |memory_model::choice_ws-ext_1_9_2_1_F_408| false)
(= |memory_model::choice_ws-ext_1_9_2_7_F_409| true)
(= |memory_model::choice_ws-ext_1_9_2_9_F_410| true)
(= |memory_model::choice_ws-ext_1_9_3_1_F_411| false)
(= |memory_model::choice_ws-ext_1_9_3_7_F_412| false)
(= |memory_model::choice_ws-ext_1_9_3_9_F_413| true)
(= |memory_model::choice_ws-ext_1_9_4_1_F_414| false)
(= |memory_model::choice_ws-ext_1_9_4_7_F_415| false)
(= |memory_model::choice_ws-ext_1_9_4_9_F_416| true)
(= |memory_model::choice_ws-ext_1_9_5_1_F_417| true)
(= |memory_model::choice_ws-ext_1_9_5_7_F_418| true)
(= |memory_model::choice_ws-ext_1_9_5_9_F_419| true)
(= |memory_model::choice_ws-ext_2_1_3_1_F_420| true)
(= |memory_model::choice_ws-ext_2_1_3_7_F_421| true)
(= |memory_model::choice_ws-ext_2_1_3_9_F_422| true)
(= |memory_model::choice_ws-ext_2_1_4_1_F_423| true)
(= |memory_model::choice_ws-ext_2_1_4_7_F_424| true)
(= |memory_model::choice_ws-ext_2_1_4_9_F_425| true)
(= |memory_model::choice_ws-ext_2_1_5_1_F_426| true)
(= |memory_model::choice_ws-ext_2_1_5_7_F_427| true)
(= |memory_model::choice_ws-ext_2_1_5_9_F_428| true)
(= |memory_model::choice_ws-ext_2_7_3_1_F_429| false)
(= |memory_model::choice_ws-ext_2_7_3_7_F_430| false)
(= |memory_model::choice_ws-ext_2_7_3_9_F_431| true)
(= |memory_model::choice_ws-ext_2_7_4_1_F_432| false)
(= |memory_model::choice_ws-ext_2_7_4_7_F_433| false)
(= |memory_model::choice_ws-ext_2_7_4_9_F_434| false)
(= |memory_model::choice_ws-ext_2_7_5_1_F_435| false)
(= |memory_model::choice_ws-ext_2_7_5_7_F_436| false)
(= |memory_model::choice_ws-ext_2_7_5_9_F_437| false)
(= |memory_model::choice_ws-ext_2_9_3_1_F_438| false)
(= |memory_model::choice_ws-ext_2_9_3_7_F_439| false)
(= |memory_model::choice_ws-ext_2_9_3_9_F_440| true)
(= |memory_model::choice_ws-ext_2_9_4_1_F_441| false)
(= |memory_model::choice_ws-ext_2_9_4_7_F_442| false)
(= |memory_model::choice_ws-ext_2_9_4_9_F_443| false)
(= |memory_model::choice_ws-ext_2_9_5_1_F_444| false)
(= |memory_model::choice_ws-ext_2_9_5_7_F_445| false)
(= |memory_model::choice_ws-ext_2_9_5_9_F_446| false)
(= |memory_model::choice_ws-ext_3_1_4_1_F_447| true)
(= |memory_model::choice_ws-ext_3_1_4_7_F_448| true)
(= |memory_model::choice_ws-ext_3_1_4_9_F_449| true)
(= |memory_model::choice_ws-ext_3_1_5_1_F_450| true)
(= |memory_model::choice_ws-ext_3_1_5_7_F_451| true)
(= |memory_model::choice_ws-ext_3_1_5_9_F_452| true)
(= |memory_model::choice_ws-ext_3_7_4_1_F_453| true)
(= |memory_model::choice_ws-ext_3_7_4_7_F_454| true)
(= |memory_model::choice_ws-ext_3_7_4_9_F_455| true)
(= |memory_model::choice_ws-ext_3_7_5_1_F_456| true)
(= |memory_model::choice_ws-ext_3_7_5_7_F_457| true)
(= |memory_model::choice_ws-ext_3_7_5_9_F_458| true)
(= |memory_model::choice_ws-ext_3_9_4_1_F_459| false)
(= |memory_model::choice_ws-ext_3_9_4_7_F_460| false)
(= |memory_model::choice_ws-ext_3_9_4_9_F_461| false)
(= |memory_model::choice_ws-ext_3_9_5_1_F_462| false)
(= |memory_model::choice_ws-ext_3_9_5_7_F_463| false)
(= |memory_model::choice_ws-ext_3_9_5_9_F_464| false)
(= |memory_model::choice_ws-ext_4_1_5_1_F_465| true)
(= |memory_model::choice_ws-ext_4_1_5_7_F_466| true)
(= |memory_model::choice_ws-ext_4_1_5_9_F_467| true)
(= |memory_model::choice_ws-ext_4_7_5_1_F_468| true)
(= |memory_model::choice_ws-ext_4_7_5_7_F_469| true)
(= |memory_model::choice_ws-ext_4_7_5_9_F_470| true)
(= |memory_model::choice_ws-ext_4_9_5_1_F_471| false)
(= |memory_model::choice_ws-ext_4_9_5_7_F_472| true)
(= |memory_model::choice_ws-ext_4_9_5_9_F_473| true)
(= |MTX#3| #b00000000)
(= |MTX#6| #b00000001)
(= |MTX#9| #b00000000)
(= |MTX#12| #b00000001)
(= |MTX#15| #b00000000)
(= |MTX#18| #b00000000)
(= |MTX#21| #b00000000)
(= |MTX#24| #b00000001)
(= |MTX#27| #b10000000)
(= |MTX#30| #b00000000)
(= |MTX#33| #b00000000)
(= |MTX#36| #b00000001)
(= |MTX#39| #b00000001)
(= |MTX#42| #b10000000)
(= |MTX#45| #b00000001)
(= |__CPROVER_next_thread_id#3| #b00000000000000000000000000000001)
(= |__CPROVER_next_thread_id#6| #b00000000000000000000000000000010)
(= |__CPROVER_next_thread_id#9| #b00000000000000000000000000000011)
(= |__CPROVER_next_thread_id#12| #b00000000000000000000000000000100)
(= |MTX#2| #b00000000)
(= |count#2| #b00000000000000000000000000000000)
(= |count#4| #b00000000000000000000000000000001)
(= |MTX#5| #b00000001)
(= |MTX#8| #b00000000)
(= |MTX#11| #b00000001)
(= |count#6| #b00000000000000000000000000000001)
(= |count#8| #b00000000000000000000000000000011)
(= |MTX#14| #b00000000)
(= |MTX#17| #b00000000)
(= |MTX#20| #b00000000)
(= |count#10| #b00000000000000000000000000000001)
(= |count#12| #b00000000000000000000000000000010)
(= |MTX#23| #b00000001)
(= |MTX#26| #b10000000)
(= |MTX#29| #b00000000)
(= |count#14| #b00000000000000000000000000000010)
(= |count#16| #b00000000000000000000000000000011)
(= |MTX#32| #b00000000)
(= |MTX#35| #b00000001)
(= |MTX#38| #b00000001)
(= |count#18| #b00000000000000000000000000000010)
(= |count#20| #b00000000000000000000000000000011)
(= |MTX#41| #b10000000)
(= |MTX#44| #b00000001)
(= |count#1$wclk$8| #b0110011)
(= |count#2$rclk$8| #b1001011)
(= |count#7$wclk$8| #b1101111)
(= |count#9$wclk$8| #b1110110)
(= |count#11$wclk$8| #b1010110)
(= |count#13$wclk$8| #b1011000)
(= |count#15$wclk$8| #b1011101)
(= |count#17$wclk$8| #b1011111)
(= |count#19$wclk$8| #b1110010)
(= |count#21$wclk$8| #b1111000)
(= |count#4$rclk$8| #b1001101)
(= |count#6$rclk$8| #b1001111)
(= |count#3$wclk$8| #b1001100)
(= |count#5$wclk$8| #b1001110)
(= |count#8$rclk$8| #b1110101)
(= |count#10$rclk$8| #b1010101)
(= |count#12$rclk$8| #b1010111)
(= |count#14$rclk$8| #b1011011)
(= |count#16$rclk$8| #b1011110)
(= |count#18$rclk$8| #b1110001)
(= |count#20$rclk$8| #b1110011)
(= |MTX#1$wclk$8| #b0000000)
(= |MTX#2$rclk$8| #b1001010)
(= |MTX#13$wclk$8| #b1001110)
(= |MTX#16$wclk$8| #b1111101)
(= |MTX#19$wclk$8| #b1111110)
(= |MTX#22$wclk$8| #b1010100)
(= |MTX#25$wclk$8| #b1011001)
(= |MTX#28$wclk$8| #b1111111)
(= |MTX#31$wclk$8| #b1011010)
(= |MTX#34$wclk$8| #b1100000)
(= |MTX#37$wclk$8| #b1100110)
(= |MTX#40$wclk$8| #b1100011)
(= |MTX#43$wclk$8| #b1111010)
(= |MTX#46$wclk$8| #b1111011)
(= |MTX#5$rclk$8| #b1001111)
(= |MTX#8$rclk$8| #b1100001)
(= |MTX#11$rclk$8| #b1001110)
(= |MTX#4$wclk$8| #b1001010)
(= |MTX#7$wclk$8| #b1001111)
(= |MTX#10$wclk$8| #b1100001)
(= |MTX#14$rclk$8| #b1111101)
(= |MTX#17$rclk$8| #b1111110)
(= |MTX#20$rclk$8| #b1010100)
(= |MTX#23$rclk$8| #b1011001)
(= |MTX#26$rclk$8| #b1111111)
(= |MTX#29$rclk$8| #b1011010)
(= |MTX#32$rclk$8| #b1100000)
(= |MTX#35$rclk$8| #b1100110)
(= |MTX#38$rclk$8| #b1100011)
(= |MTX#41$rclk$8| #b1111010)
(= |MTX#44$rclk$8| #b1111011)
(= t1$14$spwnclk$8 #b1001001)
(= t1$18$spwnclk$8 #b1001101)
(= t1$22$spwnclk$8 #b1010010)
(= t1$26$spwnclk$8 #b1011001)
(= t1$30$spwnclk$8 #b1100010)
(= |__CPROVER_dead_object#1$wclk$8| #b0000100)
(= |__CPROVER_deallocated#1$wclk$8| #b0001100)
(= |__CPROVER_malloc_is_new_array#1$wclk$8| #b0001110)
(= |__CPROVER_malloc_object#1$wclk$8| #b0010000)
(= |__CPROVER_malloc_size#1$wclk$8| #b0010001)
(= |__CPROVER_memory_leak#1$wclk$8| #b0010010)
(= |__CPROVER_next_thread_id#1$wclk$8| #b0010011)
(= |__CPROVER_pipe_count#1$wclk$8| #b0110000)
(= |__CPROVER_threads_exited#1$wclk$8| #b0110010)
(= |main::1::t!0@1#1$wclk$8| #b0110101)
(= |__CPROVER_next_thread_id#2$wclk$8| #b0110110)
(= |main::1::t!0@1#2$wclk$8| #b0111000)
(= |__CPROVER_next_thread_id#3$rclk$8| #b1001010)
(= |__CPROVER_next_thread_id#5$wclk$8| #b1001010)
(= |main::1::t!0@1#3$wclk$8| #b1001100)
(= |__CPROVER_next_thread_id#6$rclk$8| #b1010000)
(= |__CPROVER_next_thread_id#8$wclk$8| #b1010000)
(= |main::1::t!0@1#4$wclk$8| #b1010001)
(= |__CPROVER_next_thread_id#9$rclk$8| #b1010011)
(= |__CPROVER_next_thread_id#11$wclk$8| #b1010011)
(= |main::1::t!0@1#5$wclk$8| #b1011000)
(= |__CPROVER_next_thread_id#12$rclk$8| #b1100000)
(= |__CPROVER_next_thread_id#14$wclk$8| #b1100000)
(= |main::1::t!0@1#6$wclk$8| #b1100001)

real	0m0.041s
user	0m0.031s
sys	0m0.010s
State: AC Run_time: 0.04323077201843262